(set-logic QF_LIA)
(set-info :ran/ran2.smt2)
(set-info :smt-lib-version 2.0)
(declare-fun x1 () Int)
(declare-fun x2 () Int)
(declare-fun x3 () Int)
(declare-fun x4 () Int)
(declare-fun x5 () Int)
(assert (<= (+ (* 5 x1) (* 10 x2) (* 7 x3) (* (- 3) x4) (* 1 x5) ) 2141))
(assert (<= (+ (* 1 x1) (* 3 x2) (* 2 x3) (* (- 3) x4) (* 1 x5) ) (- 1840)))
(assert (<= (+ (* (- 6) x1) (* (- 1) x2) (* (- 4) x3) (* 4 x4) (* (- 1) x5) ) (- 1875)))
(assert (<= (+ (* 4 x1) (* (- 5) x2) (* (- 1) x3) (* (- 9) x4) (* 3 x5) ) 3191))
(assert (<= (+ (* (- 6) x1) (* (- 9) x2) (* (- 2) x3) (* 9 x4) (* 2 x5) ) 7408))
(assert (<= (+ (* 6 x1) (* (- 6) x2) (* (- 6) x3) (* 0 x4) (* 1 x5) ) (- 7614)))
(assert (<= (+ (* (- 9) x1) (* 10 x2) (* (- 4) x3) (* 1 x4) (* (- 5) x5) ) 3927))
(assert (<= (+ (* 2 x1) (* (- 1) x2) (* (- 8) x3) (* 8 x4) (* (- 10) x5) ) 6881))
(assert (<= (+ (* 1 x1) (* 2 x2) (* 5 x3) (* 10 x4) (* 3 x5) ) (- 9275)))
(assert (<= (+ (* (- 4) x1) (* 8 x2) (* (- 4) x3) (* 4 x4) (* 6 x5) ) 3715))
(assert (<= (+ (* 1 x1) (* 0 x2) (* 0 x3) (* 0 x4) (* 0 x5) ) 10000))
(assert (<= (+ (* (- 1) x1) (* 0 x2) (* 0 x3) (* 0 x4) (* 0 x5) ) 10000))
(assert (<= (+ (* 0 x1) (* 1 x2) (* 0 x3) (* 0 x4) (* 0 x5) ) 10000))
(assert (<= (+ (* 0 x1) (* (- 1) x2) (* 0 x3) (* 0 x4) (* 0 x5) ) 10000))
(assert (<= (+ (* 0 x1) (* 0 x2) (* 1 x3) (* 0 x4) (* 0 x5) ) 10000))
(assert (<= (+ (* 0 x1) (* 0 x2) (* (- 1) x3) (* 0 x4) (* 0 x5) ) 10000))
(assert (<= (+ (* 0 x1) (* 0 x2) (* 0 x3) (* 1 x4) (* 0 x5) ) 10000))
(assert (<= (+ (* 0 x1) (* 0 x2) (* 0 x3) (* (- 1) x4) (* 0 x5) ) 10000))
(assert (<= (+ (* 0 x1) (* 0 x2) (* 0 x3) (* 0 x4) (* 1 x5) ) 10000))
(assert (<= (+ (* 0 x1) (* 0 x2) (* 0 x3) (* 0 x4) (* (- 1) x5) ) 10000))
